153 124 108 72 19 36 20 87 138 81 38 175 28 60 185 184 161 182 9 157 190 10 6 119 49 46 55 23 178 93 135 154 12 149 156 112 77 82 160 101 168 80 171 30 111 128 21 172 118 199 73 7 65 33 148 123 2 62 100 179 69 169 127 166 4 99 70 67 198 196 122 3 52 79 64 165 113 177 104 187 114 86 144 25 34 116 47 24 40 109 95 120 78 155 91 50 92 18 42 11 170 71 126 76 59 15 137 90 183 125 14 146 136 43 145 133 53 39 189 41 37 97 152 180 167 44 63 181 141 58 103 174 158 159 131 35 32 74 173 121 164 51 57 26 31 110 192 194 102 85 13 186 83 0 162 89 129 29 61 98 22 139 48 151 115 66 197 106 134 54 117 45 188 140 94 130 17 163 68 191 88 5 27 16 96 150 1 195 147 56 105 84 107 193 176 142 75 132 143 8